results/x-long/X-n190-k8.vrp_seed-21.out
16984	1093
