results/x-long/X-n190-k8.vrp_seed-21.vrp.sol
Route #1: 37 29 83 182 160 184 1 165 88 44 127 172
Route #2: 105 19 57 63 66 171 13 120 168 110 4 163 128 34 103 108 129 156 133 72 139 149 45 99 118 131
Route #3: 102 35 8 100 42 90 96 3 15 27 187 124 140 189 154 53 20 65 114 9 55 69 50 135 31
Route #4: 188 64 25 183 136 167 148 98 141 70 185 18 84 153 180 61 32 40 76 126 54 48 130 56 21 68 81
Route #5: 46 92 145 115 144 94 178 179 62 59 91 113 111 74 161 134 132 173 157 166 170
Route #6: 10 43 58 28 138 85 80 150 30 39 36 22 77 38 2 6 109 89 104 142 159
Route #7: 73 112 169 78 147 12 86 125 137 151 174 181 41 152 87 186 146 177 123 71 52 101 47 5 176 24 97 143 95
Route #8: 14 16 67 51 93 75 121 158 164 23 107 33 162 7 155 17 79 60 116 82 122 11 175 117 26 49 119 106
Cost 16984.000000